File: D:\ML4VRP2024\Instances\CVRP\json\X-n106-k14.json exists.
Route #1: 1 104 12 46 71 58 91 
Route #2: 44 76 87 74 99 77 2 
Route #3: 35 73 89 30 42 3 23 98 
Route #4: 56 68 95 59 38 4 70 
Route #5: 5 15 53 103 43 67 83 48 
Route #6: 47 61 80 65 39 50 6 81 
Route #7: 33 62 7 37 27 86 41 
Route #8: 101 28 93 97 66 49 8 36 
Route #9: 22 92 102 90 9 14 88 
Route #10: 78 19 18 10 16 20 32 55 
Route #11: 51 60 11 21 54 85 69 
Route #12: 45 100 34 13 40 31 17 105 64 
Route #13: 52 26 24 75 84 79 
Route #14: 96 82 29 72 57 63 94 25 
